clingo version 5.5.2
Reading from ...nt/beegfs/home/jubruns/encoding/mif.lp ...
Solving...
Answer: 1
move(1,(16,16),(15,16),1) move(1,(15,16),(14,16),2) move(1,(14,16),(13,16),3) move(1,(13,16),(13,15),4) move(1,(13,15),(12,15),5) move(1,(12,15),(11,15),6) move(1,(11,15),(11,14),7) move(1,(11,14),(11,13),8) move(1,(11,13),(10,13),9) move(1,(10,13),(9,13),10) move(1,(9,13),(8,13),11) move(1,(8,13),(8,12),12) move(1,(8,12),(8,11),13) move(1,(8,11),(8,10),14) move(1,(8,10),(8,9),15) move(1,(8,9),(8,8),16) move(1,(8,8),(8,7),17) move(1,(8,7),(7,7),18) move(1,(7,7),(7,6),19) move(2,(4,1),(4,2),2)
SATISFIABLE

Models       : 1+
Calls        : 1
Time         : 0.257s (Solving: 0.01s 1st Model: 0.01s Unsat: 0.00s)
CPU Time     : 0.235s

Choices      : 113      (Domain: 40)
Conflicts    : 7        (Analyzed: 7)
Restarts     : 0       
Model-Level  : 28.0    
Problems     : 1        (Average Length: 0.00 Splits: 0)
Lemmas       : 7        (Deleted: 0)
  Binary     : 2        (Ratio:  28.57%)
  Ternary    : 0        (Ratio:   0.00%)
  Conflict   : 7        (Average Length:   11.6 Ratio: 100.00%) 
  Loop       : 0        (Average Length:    0.0 Ratio:   0.00%) 
  Other      : 0        (Average Length:    0.0 Ratio:   0.00%) 
Backjumps    : 7        (Average: 12.14 Max:  17 Sum:     85)
  Executed   : 7        (Average: 12.14 Max:  17 Sum:     85 Ratio: 100.00%)
  Bounded    : 0        (Average:  0.00 Max:   0 Sum:      0 Ratio:   0.00%)

Rules        : 99402    (Original: 67984)
  Choice     : 38      
  Heuristic  : 2170     (Original: 2180)
Atoms        : 55537    (Original: 40926 Auxiliary: 14611)
Disjunctions : 0        (Original: 1)
Bodies       : 56403    (Original: 39629)
  Count      : 30       (Original: 114)
Equivalences : 27362    (Atom=Atom: 44 Body=Body: 48 Other: 27270)
Tight        : Yes
Variables    : 62087    (Eliminated:    0 Frozen: 19024)
Constraints  : 138620   (Binary:  80.3% Ternary:  18.5% Other:   1.1%)

